100
61 99
95 7
45 87
15 47
39 75
55 23
29 71
87 79
75 63
65 61
73 35
17 35
39 99
75 77
49 37
85 31
89 71
89 43
79 81
45 5
93 69
49 69
63 25
93 33
39 45
89 33
47 77
29 19
13 65
33 9
63 9
41 13
67 75
41 27
49 77
57 81
45 5
83 7
81 61
57 81
93 89
17 13
89 27
7 25
35 35
DEMAND_SECTION Best value: 1146
0 
14 
1 
16 
23 
12 
6 
5 
1 
13 
20 
14 
18 
7 
8 
21 
8 
24 
20 
19 
13 
3 
26 
17 
22 
8 
16 
20 
12 
22 
20 
12 
14 
25 
17 
19 
20 
15 
2 
9 
10 
6 
11 
21 
24 